c generated by generate.py on 2024-12-26 01:25:32
c positive instance
p edge 140 217
e 1 116
e 2 97
e 2 112
e 3 9
e 3 51
e 3 64
e 3 126
e 4 74
e 4 83
e 4 119
e 5 6
e 5 48
e 5 66
e 5 138
e 6 71
e 6 97
e 6 108
e 7 58
e 7 95
e 7 125
e 8 31
e 8 81
e 8 97
e 9 23
e 9 78
e 9 123
e 10 61
e 11 14
e 11 16
e 11 20
e 11 115
e 11 121
e 12 52
e 12 109
e 13 23
e 13 58
e 13 63
e 13 112
e 14 101
e 15 19
e 15 62
e 15 63
e 16 42
e 16 79
e 16 93
e 16 119
e 17 92
e 17 97
e 17 134
e 18 52
e 18 138
e 19 77
e 20 102
e 21 54
e 21 62
e 21 78
e 21 87
e 21 91
e 22 128
e 22 138
e 23 31
e 23 67
e 23 75
e 24 56
e 24 60
e 24 119
e 25 59
e 25 120
e 25 129
e 26 82
e 26 128
e 27 71
e 27 100
e 27 102
e 28 85
e 30 43
e 31 116
e 31 137
e 32 65
e 32 71
e 33 57
e 34 73
e 34 89
e 35 72
e 35 81
e 35 85
e 35 116
e 36 41
e 37 82
e 37 106
e 37 126
e 39 74
e 39 78
e 39 99
e 41 42
e 41 45
e 41 74
e 41 91
e 41 122
e 41 123
e 41 134
e 42 83
e 42 114
e 45 122
e 46 79
e 46 103
e 46 119
e 46 130
e 46 134
e 47 71
e 47 77
e 47 98
e 47 136
e 48 78
e 48 123
e 49 51
e 49 69
e 49 133
e 51 82
e 51 83
e 51 93
e 52 100
e 52 110
e 52 138
e 53 121
e 54 60
e 54 84
e 54 87
e 54 134
e 56 67
e 58 137
e 59 114
e 60 69
e 60 80
e 60 135
e 62 114
e 62 121
e 63 85
e 64 77
e 64 79
e 65 134
e 66 121
e 66 135
e 69 130
e 69 131
e 70 96
e 71 76
e 72 88
e 72 118
e 73 81
e 74 95
e 75 120
e 76 110
e 76 118
e 76 137
e 77 98
e 77 138
e 78 119
e 78 123
e 80 100
e 80 140
e 81 112
e 81 124
e 82 89
e 82 122
e 83 91
e 83 133
e 84 88
e 84 106
e 85 112
e 86 113
e 86 131
e 86 135
e 88 100
e 89 106
e 89 110
e 89 114
e 89 115
e 89 134
e 89 137
e 90 104
e 90 131
e 90 137
e 92 100
e 92 115
e 95 131
e 96 115
e 96 133
e 97 106
e 98 112
e 101 104
e 102 113
e 102 133
e 104 111
e 105 111
e 106 117
e 108 109
e 108 125
e 108 126
e 109 113
e 110 136
e 114 119
e 114 134
e 114 136
e 114 137
e 115 132
e 117 131
e 119 125
e 120 126
e 120 133
e 124 128
e 124 132
e 125 136
e 127 138
e 128 135
e 133 136
e 133 140
